Route #1: 54 77 83 2 17 69 105 64 94 82
Route #2: 74 21 85 13 40 31 63 57
Route #3: 96 45 100 51 76 15 44 5
Route #4: 29 72 34 11 99 49 71
Route #5: 60 87 43 97 93 101 103 53
Route #6: 67 48 8 36 91 88 58 14
Route #7: 1 104 12 9 84 75 7
Route #8: 52 92 102 24 90 26 62
Route #9: 28 66 46 79 37 27 19 78
Route #10: 22 33
Route #11: 56 20 16 10 41 18 86
Route #12: 59 89 30 42 23 3 32 73 35
Route #13: 39 50 81 6 70 4 98 55
Route #14: 25 47 61 80 65 38 95 68
Cost 26362
